(set-logic QF_S)
(declare-fun var_0xINPUT_293602 () String)
(assert (and (= (len var_0xINPUT_293602) 0) (= (len var_0xINPUT_293602) 0) (not (= var_0xINPUT_293602 "Example:")) (= (len var_0xINPUT_293602) 0)))
(check-sat var_0xINPUT_293602)